Maximize
 obj: 0
Subject to

\true constraints
   73 X1
 +    60 X2
 +    79 X3
 +    69 X4
 +    71 X5
 +    99 X6
 +    94 X7
 +    80 X8
 +    84 X9
 +    76 X10
 +    66 X11
 +    93 X12
 +    78 X13
 +    77 X14
 +    90 X15
< 594.500000

\multiple objectives
   89 X1
 +    80 X2
 +    69 X3
 +    63 X4
 +   100 X5
 +    73 X6
 +    80 X7
 +    69 X8
 +    71 X9
 +    66 X10
 +    66 X11
 +    63 X12
 +    68 X13
 +    60 X14
 +    68 X15
> 1
   90 X1
 +    82 X2
 +    65 X3
 +    76 X4
 +    74 X5
 +    93 X6
 +    94 X7
 +    99 X8
 +    83 X9
 +    62 X10
 +    70 X11
 +    64 X12
 +    77 X13
 +    60 X14
 +    83 X15
> 2
   94 X1
 +    62 X2
 +    94 X3
 +    99 X4
 +    61 X5
 +    89 X6
 +    83 X7
 +    94 X8
 +    69 X9
 +    80 X10
 +    72 X11
 +    64 X12
 +    95 X13
 +    70 X14
 +   100 X15
> 3
   94 X1
 +    64 X2
 +    66 X3
 +    66 X4
 +    77 X5
 +    92 X6
 +    78 X7
 +    71 X8
 +    65 X9
 +    88 X10
 +    65 X11
 +    93 X12
 +    87 X13
 +   100 X14
 +    76 X15
> 4
   63 X1
 +    87 X2
 +    92 X3
 +    96 X4
 +   100 X5
 +    64 X6
 +    78 X7
 +    69 X8
 +    81 X9
 +    60 X10
 +    73 X11
 +    92 X12
 +    77 X13
 +    89 X14
 +    83 X15
> 5
   87 X1
 +    99 X2
 +    98 X3
 +   100 X4
 +    77 X5
 +    84 X6
 +    76 X7
 +    88 X8
 +    74 X9
 +    86 X10
 +    82 X11
 +    80 X12
 +    78 X13
 +    60 X14
 +    98 X15
> 6
   72 X1
 +    62 X2
 +    71 X3
 +    68 X4
 +    68 X5
 +    60 X6
 +    85 X7
 +    67 X8
 +    80 X9
 +    89 X10
 +    84 X11
 +    75 X12
 +    92 X13
 +    64 X14
 +    73 X15
> 7
   92 X1
 +    85 X2
 +    88 X3
 +    60 X4
 +    69 X5
 +    69 X6
 +    84 X7
 +    69 X8
 +    68 X9
 +    85 X10
 +    67 X11
 +    94 X12
 +    66 X13
 +    74 X14
 +    92 X15
> 8
   74 X1
 +    74 X2
 +    99 X3
 +    96 X4
 +    62 X5
 +    74 X6
 +    79 X7
 +    73 X8
 +    96 X9
 +    85 X10
 +    99 X11
 +    70 X12
 +    94 X13
 +    99 X14
 +    62 X15
> 9
BINARY
X1
X2
X3
X4
X5
X6
X7
X8
X9
X10
X11
X12
X13
X14
X15
END
